Route #1: 58 32 4 22 45 50 76 70
Route #2: 42 53 66 67 36 73 49
Route #3: 46 25 41 55 9 54 72 38
Route #4: 29 20 75 57 19 26 35 65 69 56 47 15 33 64
Route #5: 51 77 3 39 60 74 13
Route #6: 62 12 44 5 59 27 31 17
Route #7: 34 2 37 8 68 43 16 61 78 30
Route #8: 23 6 24 11 63 10
Route #9: 71 52 28 79 18 48 14
Route #10: 1 7 21 40
Cost 1763
Time 0.761141
Tempo = 0.7747168999994756